<number of tasks>
250

<cycle time>
1000

<order strength>
0.895


<task times>
1 81
2 22
3 73
4 201
5 161
6 65
7 175
8 341
9 44
10 253
11 248
12 206
13 174
14 82
15 92
16 184
17 40
18 156
19 106
20 155
21 35
22 157
23 92
24 168
25 117
26 37
27 178
28 85
29 108
30 42
31 77
32 133
33 86
34 233
35 56
36 90
37 134
38 101
39 119
40 177
41 131
42 53
43 91
44 72
45 181
46 159
47 224
48 210
49 105
50 236
51 75
52 97
53 243
54 77
55 216
56 68
57 43
58 126
59 174
60 156
61 232
62 31
63 212
64 92
65 93
66 138
67 97
68 152
69 164
70 133
71 250
72 86
73 177
74 118
75 183
76 194
77 194
78 85
79 130
80 224
81 290
82 79
83 53
84 142
85 101
86 26
87 21
88 297
89 84
90 96
91 88
92 97
93 31
94 54
95 214
96 112
97 171
98 231
99 268
100 148
101 216
102 21
103 145
104 164
105 160
106 235
107 100
108 77
109 58
110 116
111 31
112 116
113 92
114 50
115 116
116 20
117 77
118 121
119 195
120 128
121 91
122 89
123 119
124 100
125 153
126 83
127 152
128 23
129 115
130 163
131 30
132 149
133 130
134 116
135 148
136 163
137 262
138 82
139 150
140 57
141 111
142 132
143 73
144 214
145 44
146 86
147 123
148 199
149 47
150 85
151 246
152 99
153 90
154 181
155 131
156 47
157 102
158 122
159 59
160 269
161 206
162 207
163 136
164 123
165 59
166 41
167 182
168 228
169 26
170 171
171 66
172 85
173 47
174 104
175 125
176 136
177 158
178 54
179 64
180 224
181 178
182 224
183 110
184 188
185 111
186 157
187 28
188 171
189 106
190 27
191 240
192 206
193 177
194 29
195 276
196 165
197 211
198 226
199 222
200 102
201 43
202 73
203 74
204 135
205 119
206 122
207 117
208 142
209 98
210 148
211 262
212 155
213 130
214 225
215 65
216 47
217 153
218 138
219 26
220 115
221 34
222 112
223 242
224 173
225 70
226 114
227 218
228 253
229 147
230 162
231 146
232 154
233 168
234 213
235 215
236 120
237 94
238 191
239 50
240 20
241 204
242 237
243 145
244 233
245 58
246 137
247 56
248 153
249 91
250 23

<precedence relations>
1,4
1,5
1,6
1,7
1,8
1,9
2,4
2,5
2,6
2,7
2,8
2,9
3,4
3,5
3,6
3,7
3,8
3,9
4,10
4,11
4,12
4,13
4,14
5,10
5,11
5,12
5,13
5,14
6,10
6,11
6,12
6,13
6,14
7,10
7,11
7,12
7,13
7,14
8,10
8,11
8,12
8,13
8,14
9,10
9,11
9,12
9,13
9,14
10,15
10,16
10,17
10,18
10,19
10,20
11,15
11,16
11,17
11,18
11,19
11,20
12,15
12,16
12,17
12,18
12,19
12,20
13,15
13,16
13,17
13,18
13,19
13,20
14,15
14,16
14,17
14,18
14,19
14,20
15,21
15,22
15,23
15,24
16,21
16,22
16,23
16,24
17,21
17,22
17,23
17,24
18,21
18,22
18,23
18,24
19,21
19,22
19,23
19,24
20,21
20,22
20,23
20,24
21,25
21,26
21,27
21,28
21,29
22,25
22,26
22,27
22,28
22,29
23,25
23,26
23,27
23,28
23,29
24,25
24,26
24,27
24,28
24,29
25,30
25,31
26,30
26,31
27,30
27,31
28,30
28,31
29,30
29,31
30,32
30,33
30,34
30,35
31,32
31,33
31,34
31,35
32,36
32,37
32,38
33,36
33,37
33,38
34,36
34,37
34,38
35,36
35,37
35,38
36,39
36,40
36,41
36,42
37,39
37,40
37,41
37,42
38,39
38,40
38,41
38,42
39,43
39,44
39,45
39,46
39,47
39,48
40,43
40,44
40,45
40,46
40,47
40,48
41,43
41,44
41,45
41,46
41,47
41,48
42,43
42,44
42,45
42,46
42,47
42,48
43,49
43,50
43,55
43,56
43,57
44,49
44,50
44,51
44,52
44,53
44,54
45,49
45,50
45,51
45,52
45,53
45,54
46,49
46,50
46,51
46,52
46,53
46,54
47,49
47,50
47,51
47,52
47,53
47,54
48,49
48,50
48,51
48,53
48,54
49,58
50,92
51,55
51,56
51,57
51,58
52,55
52,56
52,57
52,58
53,55
53,56
53,57
53,58
54,55
54,56
54,57
54,58
55,59
55,60
55,61
55,62
55,63
56,59
56,60
56,61
57,59
57,60
57,61
57,62
58,59
58,60
59,66
59,67
59,72
60,64
60,65
60,66
60,67
60,68
61,64
61,68
62,64
62,65
63,64
63,65
63,66
64,69
64,70
64,71
64,72
64,73
65,71
65,72
65,77
66,106
66,138
67,69
67,73
68,69
69,74
69,75
70,98
71,74
71,75
71,76
72,76
72,83
73,74
73,75
73,76
73,77
74,78
74,79
74,80
75,78
76,78
76,79
77,78
77,79
78,81
78,82
79,82
79,84
79,85
80,81
80,83
81,88
81,90
82,164
83,87
83,88
83,89
83,90
84,86
84,87
84,88
84,90
85,86
85,87
85,88
85,89
85,90
86,91
86,94
87,91
87,93
87,94
88,91
88,92
88,93
88,94
89,102
89,111
90,91
90,92
90,94
91,95
91,96
91,97
92,143
93,95
94,95
94,96
94,97
95,98
95,101
95,111
96,98
96,99
96,100
97,100
97,110
98,102
99,102
99,103
99,104
99,105
100,105
100,141
100,144
101,102
101,103
102,106
102,107
102,108
102,109
102,110
102,112
103,106
103,109
103,115
104,108
104,110
104,120
105,106
105,111
105,132
106,215
106,220
106,221
107,116
108,113
108,115
109,113
110,128
111,151
112,114
112,125
113,117
113,118
113,119
113,125
114,117
114,118
115,119
115,144
115,175
116,117
116,118
116,120
117,121
117,122
117,124
118,123
118,129
119,161
119,171
120,125
121,126
121,127
121,128
121,129
122,126
122,127
123,126
123,127
124,129
125,127
125,128
125,129
126,130
126,131
126,132
127,130
127,131
127,132
128,130
128,132
129,130
129,131
130,136
130,144
131,133
131,134
131,135
131,136
132,136
133,139
133,164
134,140
135,137
135,138
135,139
135,140
135,141
135,142
136,137
136,142
136,145
137,166
137,168
137,183
138,143
138,144
139,144
139,181
139,189
140,145
140,155
140,165
141,143
141,145
141,148
142,143
142,148
143,146
143,147
143,149
143,150
143,151
144,146
144,148
144,169
144,178
144,197
145,146
145,147
145,154
145,177
146,156
147,163
148,198
148,234
149,155
150,154
150,161
151,152
151,153
151,154
152,157
152,158
152,159
152,161
152,166
153,157
153,159
154,157
154,172
154,176
155,157
155,160
157,163
158,162
158,163
159,162
159,164
159,165
159,172
160,162
160,166
161,174
162,167
162,168
162,169
162,170
162,171
162,173
163,167
163,169
164,167
164,168
164,169
164,170
165,173
165,193
166,172
166,185
167,179
167,181
168,182
169,182
169,184
170,174
170,175
170,176
171,174
171,176
171,177
172,174
173,175
173,194
174,180
174,188
174,189
175,179
175,185
175,198
176,178
176,179
176,181
177,178
177,206
177,218
178,182
178,185
178,214
179,183
180,184
181,243
182,188
183,189
184,186
184,187
185,208
185,213
186,190
186,191
186,226
187,191
187,194
187,199
188,193
189,192
189,200
190,195
190,234
191,225
191,238
192,195
192,197
192,199
193,195
193,213
193,217
194,196
194,198
195,203
195,215
196,200
196,202
197,201
197,215
198,215
199,201
199,225
200,204
200,205
200,206
201,205
201,216
202,207
202,208
202,209
202,218
202,219
203,207
204,210
204,211
205,214
205,228
206,210
207,212
208,227
209,212
209,213
210,217
210,224
210,225
211,215
211,218
212,224
213,216
214,224
214,230
214,234
215,219
216,222
216,236
218,220
218,221
218,222
218,223
219,246
220,241
220,242
221,224
221,225
222,226
222,247
223,229
224,227
224,229
225,228
225,230
227,232
227,235
228,234
229,231
229,233
230,246
231,246
232,237
232,238
233,242
234,239
235,236
236,241
237,240
237,242
238,239
239,245
240,246
241,243
242,244
243,247
243,250
244,248
244,249

<end>
